networks/zoo_62_558/zoo_62_558-lower.txt
Number of groups: 30
Flow 1: {1 26 0} {26 25 0} {25 56 0} 
Flow 2: {26 57 0} 
Flow 3: {26 28 0} {28 59 0} 
Flow 4: {26 29 0} {29 60 0} 
Flow 5: {25 30 0} {30 61 0} 
Flow 6: {26 1 0} {1 32 0} 
Flow 6: {2 26 0} Flow 7: {25 7 0} {7 38 0} 
Flow 8: {31 9 0} {9 40 0} 
Flow 8: {28 31 0} Flow 9: {28 12 0} {12 43 0} 
Flow 10: {29 15 0} {15 46 0} 
Flow 11: {28 18 0} {18 49 0} 
Flow 12: {29 22 0} {22 53 0} 
Flow 13: {26 23 0} {23 54 0} 
Flow 14: {25 24 0} {24 55 0} 
Flow 17: {28 27 0} {27 58 0} 
Flow 21: {31 62 0} 
Flow 22: {3 26 0} Flow 26: {4 26 0} Flow 27: {26 3 0} {3 34 0} 
Flow 28: {30 6 0} {6 37 0} 
Flow 31: {31 10 0} {10 41 0} 
Flow 33: {29 14 0} {14 45 0} 
Flow 35: {29 16 0} {16 47 0} 
Flow 37: {28 19 0} {19 50 0} 
Flow 38: {27 20 0} {20 51 0} 
Flow 39: {27 21 0} {21 52 0} 
Flow 50: {5 30 0} {30 25 0} {25 26 0} Flow 53: {30 29 0} {29 31 0} Flow 54: {29 12 0} Flow 57: {25 28 0} Flow 59: {29 27 0} Flow 71: {6 30 0} Flow 91: {7 25 0} Flow 96: {8 30 0} Flow 117: {9 31 0} {31 28 0} {28 26 0} Flow 119: {28 25 0} Flow 121: {31 29 0} Flow 135: {29 30 0} Flow 137: {10 31 0} Flow 160: {11 29 0} Flow 162: {12 28 0} Flow 164: {29 26 0} Flow 174: {26 4 0} {4 35 0} 
Flow 175: {12 29 0} Flow 196: {13 29 0} Flow 217: {14 29 0} Flow 235: {15 29 0} Flow 240: {16 29 0} Flow 242: {17 22 0} {22 29 0} Flow 263: {18 28 0} Flow 286: {19 28 0} Flow 308: {20 27 0} {27 28 0} Flow 313: {27 29 0} Flow 327: {21 27 0} Flow 363: {23 26 0} Flow 386: {24 25 0} Flow 392: {26 2 0} {2 33 0} 
Flow 397: {30 8 0} {8 39 0} 
Flow 400: {29 11 0} {11 42 0} 
Flow 405: {22 17 0} {17 48 0} 
Flow 430: {29 13 0} {13 44 0} 
Time taken running everything: 0 seconds
