networks/zoo_62_558/zoo_62_558-lower.sol
<?xml version = "1.0" encoding="UTF-8" standalone="yes"?>
<CPLEXSolution version="1.2">
 <header
   problemName="networks/zoo_62_558/zoo_62_558-lower.lp"
   solutionName="incumbent"
   solutionIndex="-1"
   objectiveValue="30"
   solutionTypeValue="3"
   solutionTypeString="primal"
   solutionStatusValue="101"
   solutionStatusString="integer optimal solution"
   solutionMethodString="mip"
   primalFeasible="1"
   dualFeasible="1"
   MIPNodes="0"
   MIPIterations="0"
   writeLevel="3"/>
 <quality
   epInt="1.0000000000000001e-05"
   epRHS="9.9999999999999995e-07"
   maxIntInfeas="0"
   maxPrimalInfeas="0"
   maxX="1"
   maxSlack="1"/>
 <variables>
  <variable name="Y(1,25)" index="24" value="1"/>
  <variable name="Y(2,26)" index="86" value="1"/>
  <variable name="Y(3,28)" index="149" value="1"/>
  <variable name="Y(4,29)" index="211" value="1"/>
  <variable name="Y(5,30)" index="273" value="1"/>
  <variable name="Y(6,1)" index="305" value="1"/>
  <variable name="Y(7,7)" index="372" value="1"/>
  <variable name="Y(8,9)" index="435" value="1"/>
  <variable name="Y(9,12)" index="499" value="1"/>
  <variable name="Y(10,15)" index="563" value="1"/>
  <variable name="Y(11,18)" index="627" value="1"/>
  <variable name="Y(12,22)" index="692" value="1"/>
  <variable name="Y(13,23)" index="754" value="1"/>
  <variable name="Y(14,24)" index="816" value="1"/>
  <variable name="Y(17,27)" index="1002" value="1"/>
  <variable name="Y(21,31)" index="1250" value="1"/>
  <variable name="Y(27,3)" index="1588" value="1"/>
  <variable name="Y(28,6)" index="1652" value="1"/>
  <variable name="Y(31,10)" index="1839" value="1"/>
  <variable name="Y(33,14)" index="1965" value="1"/>
  <variable name="Y(35,16)" index="2089" value="1"/>
  <variable name="Y(37,19)" index="2214" value="1"/>
  <variable name="Y(38,20)" index="2276" value="1"/>
  <variable name="Y(39,21)" index="2338" value="1"/>
  <variable name="Y(174,4)" index="10556" value="1"/>
  <variable name="Y(392,2)" index="23852" value="1"/>
  <variable name="Y(397,8)" index="24163" value="1"/>
  <variable name="Y(400,11)" index="24349" value="1"/>
  <variable name="Y(405,17)" index="24660" value="1"/>
  <variable name="Y(430,13)" index="26181" value="1"/>
  <variable name="X(1,26,1)" index="34038" value="1"/>
  <variable name="X(1,32,6)" index="34601" value="1"/>
  <variable name="X(2,26,6)" index="35159" value="1"/>
  <variable name="X(2,33,392)" index="36103" value="1"/>
  <variable name="X(3,26,22)" index="36291" value="1"/>
  <variable name="X(3,34,27)" index="36854" value="1"/>
  <variable name="X(4,26,26)" index="37411" value="1"/>
  <variable name="X(4,35,174)" index="38117" value="1"/>
  <variable name="X(5,30,50)" index="38551" value="1"/>
  <variable name="X(6,30,71)" index="39130" value="1"/>
  <variable name="X(6,37,28)" index="39645" value="1"/>
  <variable name="X(7,25,91)" index="40266" value="1"/>
  <variable name="X(7,38,7)" index="40740" value="1"/>
  <variable name="X(8,30,96)" index="41387" value="1"/>
  <variable name="X(8,39,397)" index="42246" value="1"/>
  <variable name="X(9,31,117)" index="42524" value="1"/>
  <variable name="X(9,40,8)" index="42973" value="1"/>
  <variable name="X(10,31,137)" index="43660" value="1"/>
  <variable name="X(10,41,31)" index="44112" value="1"/>
  <variable name="X(11,29,160)" index="44799" value="1"/>
  <variable name="X(11,42,400)" index="45597" value="1"/>
  <variable name="X(12,28,162)" index="45917" value="1"/>
  <variable name="X(12,29,175)" index="46488" value="1"/>
  <variable name="X(12,43,9)" index="46880" value="1"/>
  <variable name="X(13,29,196)" index="47625" value="1"/>
  <variable name="X(13,44,430)" index="48417" value="1"/>
  <variable name="X(14,29,217)" index="48762" value="1"/>
  <variable name="X(14,45,33)" index="49136" value="1"/>
  <variable name="X(15,29,235)" index="49896" value="1"/>
  <variable name="X(15,46,10)" index="50229" value="1"/>
  <variable name="X(16,29,240)" index="51017" value="1"/>
  <variable name="X(16,47,35)" index="51370" value="1"/>
  <variable name="X(17,22,242)" index="52135" value="1"/>
  <variable name="X(17,48,405)" index="52856" value="1"/>
  <variable name="X(18,28,263)" index="53272" value="1"/>
  <variable name="X(18,49,11)" index="53578" value="1"/>
  <variable name="X(19,28,286)" index="54411" value="1"/>
  <variable name="X(19,50,37)" index="54720" value="1"/>
  <variable name="X(20,27,308)" index="55549" value="1"/>
  <variable name="X(20,51,38)" index="55837" value="1"/>
  <variable name="X(21,27,327)" index="56684" value="1"/>
  <variable name="X(21,52,39)" index="56954" value="1"/>
  <variable name="X(22,17,405)" index="57878" value="1"/>
  <variable name="X(22,29,242)" index="58273" value="1"/>
  <variable name="X(22,53,12)" index="58601" value="1"/>
  <variable name="X(23,26,363)" index="59510" value="1"/>
  <variable name="X(23,54,13)" index="59718" value="1"/>
  <variable name="X(24,25,386)" index="60649" value="1"/>
  <variable name="X(24,55,14)" index="60835" value="1"/>
  <variable name="X(25,7,7)" index="61386" value="1"/>
  <variable name="X(25,24,14)" index="61951" value="1"/>
  <variable name="X(25,26,50)" index="62545" value="1"/>
  <variable name="X(25,28,57)" index="63110" value="1"/>
  <variable name="X(25,30,5)" index="63616" value="1"/>
  <variable name="X(25,56,1)" index="64170" value="1"/>
  <variable name="X(26,1,6)" index="64733" value="1"/>
  <variable name="X(26,2,392)" index="65677" value="1"/>
  <variable name="X(26,3,27)" index="65870" value="1"/>
  <variable name="X(26,4,174)" index="66575" value="1"/>
  <variable name="X(26,23,13)" index="66972" value="1"/>
  <variable name="X(26,25,1)" index="67518" value="1"/>
  <variable name="X(26,28,3)" index="68078" value="1"/>
  <variable name="X(26,29,4)" index="68637" value="1"/>
  <variable name="X(26,57,2)" index="69193" value="1"/>
  <variable name="X(27,20,38)" index="69787" value="1"/>
  <variable name="X(27,21,39)" index="70346" value="1"/>
  <variable name="X(27,28,308)" index="71173" value="1"/>
  <variable name="X(27,29,313)" index="71736" value="1"/>
  <variable name="X(27,58,17)" index="71998" value="1"/>
  <variable name="X(28,12,9)" index="72548" value="1"/>
  <variable name="X(28,18,11)" index="73108" value="1"/>
  <variable name="X(28,19,37)" index="73692" value="1"/>
  <variable name="X(28,25,119)" index="74332" value="1"/>
  <variable name="X(28,26,117)" index="74888" value="1"/>
  <variable name="X(28,27,17)" index="75346" value="1"/>
  <variable name="X(28,31,8)" index="75895" value="1"/>
  <variable name="X(28,59,3)" index="76448" value="1"/>
  <variable name="X(29,11,400)" index="77403" value="1"/>
  <variable name="X(29,12,54)" index="77615" value="1"/>
  <variable name="X(29,13,430)" index="78549" value="1"/>
  <variable name="X(29,14,33)" index="78710" value="1"/>
  <variable name="X(29,15,10)" index="79245" value="1"/>
  <variable name="X(29,16,35)" index="79828" value="1"/>
  <variable name="X(29,22,12)" index="80363" value="1"/>
  <variable name="X(29,26,164)" index="81073" value="1"/>
  <variable name="X(29,27,59)" index="81526" value="1"/>
  <variable name="X(29,30,135)" index="82160" value="1"/>
  <variable name="X(29,31,53)" index="82636" value="1"/>
  <variable name="X(29,60,4)" index="83145" value="1"/>
  <variable name="X(30,6,28)" index="83727" value="1"/>
  <variable name="X(30,8,397)" index="84654" value="1"/>
  <variable name="X(30,25,50)" index="84865" value="1"/>
  <variable name="X(30,29,53)" index="85426" value="1"/>
  <variable name="X(30,61,5)" index="85936" value="1"/>
  <variable name="X(31,9,8)" index="86497" value="1"/>
  <variable name="X(31,10,31)" index="87078" value="1"/>
  <variable name="X(31,28,117)" index="87722" value="1"/>
  <variable name="X(31,29,121)" index="88284" value="1"/>
  <variable name="X(31,62,21)" index="88742" value="1"/>
 </variables>
</CPLEXSolution>
